NAME: instance_384
TYPE: TSP
DIMENSION: 20
EDGE_WEIGHT_TYPE: EUC_2D
NODE_COORD_SECTION
0 39.34 7.64
1 52.10 29.03
2 29.58 42.46
3 59.59 78.42
4 29.76 47.23
5 88.39 71.49
6 10.40 26.88
7 35.79 2.75
8 81.07 66.00
9 32.38 81.17
10 94.60 23.73
11 82.78 42.99
12 3.89 7.39
13 86.21 85.46
14 97.79 94.14
15 41.19 4.85
16 8.25 0.12
17 43.59 5.66
18 32.13 4.92
19 54.92 18.68
EOF
